NAME 
ROWS
 N  OBJ
 L  R0      
 E  R1      
 E  R2      
 E  R3      
 E  R4      
 E  R5      
 E  R6      
 E  R7      
 E  R8      
 E  R9      
 E  R10     
 E  R11     
 E  R12     
 E  R13     
 E  R14     
 E  R15     
COLUMNS
    MARKER    'MARKER'                 'INTORG'
    I0(4)     OBJ       -72
    I0(4)     R0        95
    I0(4)     R2        16
    I0(4)     R4        11
    I0(4)     R15       1
    I1(7)     OBJ       -6
    I1(7)     R0        61
    I1(7)     R1        4
    I1(7)     R2        2
    I1(7)     R3        7
    I1(7)     R5        -1
    I1(7)     R6        19
    I1(7)     R15       1
    I2(6)     OBJ       184
    I2(6)     R0        -123
    I2(6)     R1        16
    I2(6)     R2        3
    I2(6)     R4        17
    I2(6)     R5        17
    I2(6)     R15       1
    I3(4)     OBJ       193
    I3(4)     R0        -89
    I3(4)     R3        14
    I3(4)     R4        18
    I3(4)     R15       1
    I4(3)     OBJ       20
    I4(3)     R0        46
    I4(3)     R2        6
    I4(3)     R15       1
    I5(5)     OBJ       43
    I5(5)     R0        -190
    I5(5)     R2        -1
    I5(5)     R4        18
    I5(5)     R6        1
    I5(5)     R15       1
    MARKER    'MARKER'                 'INTEND'
    C6(9)     R0        -1
    C6(9)     R1        3
    C6(9)     R4        2
    C6(9)     R6        13
    C6(9)     R7        1
    C6(9)     R8        14
    C6(9)     R11       7
    C6(9)     R13       4
    C6(9)     R14       19
    C7(6)     OBJ       2
    C7(6)     R0        -9
    C7(6)     R1        9
    C7(6)     R5        18
    C7(6)     R11       9
    C7(6)     R12       13
    C7(6)     R13       11
    C8(10)    OBJ       -10
    C8(10)    R0        -2
    C8(10)    R2        8
    C8(10)    R3        12
    C8(10)    R4        8
    C8(10)    R6        17
    C8(10)    R7        5
    C8(10)    R8        15
    C8(10)    R11       15
    C8(10)    R12       4
    C8(10)    R14       8
    C9(12)    OBJ       -1
    C9(12)    R0        -5
    C9(12)    R1        13
    C9(12)    R2        3
    C9(12)    R4        8
    C9(12)    R5        6
    C9(12)    R6        18
    C9(12)    R7        8
    C9(12)    R8        16
    C9(12)    R9        3
    C9(12)    R11       16
    C9(12)    R12       3
    C9(12)    R14       7
    C10(10)   OBJ       4
    C10(10)   R0        9
    C10(10)   R3        15
    C10(10)   R5        16
    C10(10)   R7        16
    C10(10)   R8        8
    C10(10)   R9        5
    C10(10)   R11       13
    C10(10)   R12       4
    C10(10)   R13       1
    C10(10)   R14       13
    C11(9)    OBJ       -7
    C11(9)    R0        -3
    C11(9)    R1        19
    C11(9)    R2        16
    C11(9)    R8        4
    C11(9)    R10       4
    C11(9)    R11       15
    C11(9)    R12       9
    C11(9)    R13       16
    C11(9)    R14       6
    C12(9)    OBJ       1
    C12(9)    R0        -7
    C12(9)    R1        19
    C12(9)    R2        19
    C12(9)    R5        8
    C12(9)    R7        12
    C12(9)    R9        10
    C12(9)    R10       18
    C12(9)    R13       14
    C12(9)    R14       8
    C13(5)    OBJ       -8
    C13(5)    R0        -4
    C13(5)    R4        16
    C13(5)    R10       3
    C13(5)    R13       16
    C13(5)    R14       13
    C14(6)    OBJ       5
    C14(6)    R0        3
    C14(6)    R7        11
    C14(6)    R9        9
    C14(6)    R10       6
    C14(6)    R11       13
    C14(6)    R13       8
    C15(1)    R1        1
    C16(1)    R2        1
    C17(1)    R3        1
    C18(1)    R4        1
    C19(1)    R5        1
    C20(1)    R6        1
    C21(1)    R7        1
    C22(1)    R8        1
    C23(1)    R9        1
    C24(1)    R10       1
    C25(1)    R11       1
    C26(1)    R12       1
    C27(1)    R13       1
    C28(1)    R14       1
    C29(1)    R15       1
RHS
    RHS1      R0        136.7
    RHS1      R1        88
    RHS1      R2        67
    RHS1      R3        85
    RHS1      R4        72
    RHS1      R5        98
    RHS1      R6        61
    RHS1      R7        95
    RHS1      R8        88
    RHS1      R9        76
    RHS1      R10       67
    RHS1      R11       57
    RHS1      R12       75
    RHS1      R13       63
    RHS1      R14       87
    RHS1      R15       2
BOUNDS
 UP BND1      I0(4)     1
 UP BND1      I1(7)     1
 UP BND1      I2(6)     1
 UP BND1      I3(4)     1
 UP BND1      I4(3)     1
 UP BND1      I5(5)     1
ENDATA
